Cost: 488
0-26-12-40-17-0
0-52-29-48-30-0
0-1-43-41-23-0
0-55-18-3-51-0
0-6-22-28-2-0
0-46-34-4-0
0-11-53-35-7-0
0-19-54-57-45-0
Cost: 488
0-45-57-54-19-0
0-17-40-12-26-0
0-2-28-22-6-0
0-1-43-41-23-0
0-46-34-4-0
0-7-11-53-35-0
0-55-18-3-51-0
0-52-29-48-30-0
Cost: 489
0-46-34-4-0
0-2-22-28-21-0
0-1-43-41-23-0
0-44-55-9-39-0
0-54-19-53-7-0
0-52-29-48-30-0
0-17-3-51-6-0
0-26-58-12-40-0
Cost: 488
0-2-28-22-6-0
0-11-53-35-7-0
0-51-3-18-55-0
0-17-40-12-26-0
0-30-48-29-52-0
0-23-41-43-1-0
0-19-54-57-45-0
0-46-34-4-0
Cost: 489
0-46-34-4-0
0-2-22-28-21-0
0-1-43-41-23-0
0-44-55-9-39-0
0-54-19-53-7-0
0-52-29-48-30-0
0-17-3-51-6-0
0-26-58-12-40-0
Cost: 488
0-7-35-53-11-0
0-55-18-3-51-0
0-2-28-22-6-0
0-52-29-48-30-0
0-17-40-12-26-0
0-1-43-41-23-0
0-45-57-54-19-0
0-4-34-46-0
Cost: 488
0-23-41-43-1-0
0-19-54-57-45-0
0-52-29-48-30-0
0-6-22-28-2-0
0-4-34-46-0
0-51-3-18-55-0
0-17-40-12-26-0
0-7-35-53-11-0
Cost: 488
0-51-3-18-55-0
0-17-40-12-26-0
0-7-35-53-11-0
0-46-34-4-0
0-2-28-22-6-0
0-30-48-29-52-0
0-1-43-41-23-0
0-45-57-54-19-0
Cost: 488
0-30-48-29-52-0
0-19-54-57-45-0
0-46-34-4-0
0-11-53-35-7-0
0-51-3-18-55-0
0-23-41-43-1-0
0-26-12-40-17-0
0-2-28-22-6-0
Cost: 488
0-52-29-48-30-0
0-55-18-3-51-0
0-2-28-22-6-0
0-46-34-4-0
0-1-43-41-23-0
0-7-11-53-35-0
0-26-12-40-17-0
0-19-54-57-45-0
Cost: 488
0-52-29-48-30-0
0-55-18-3-51-0
0-2-28-22-6-0
0-46-34-4-0
0-1-43-41-23-0
0-7-11-53-35-0
0-26-12-40-17-0
0-19-54-57-45-0
Cost: 488
0-17-40-12-26-0
0-2-28-22-6-0
0-51-3-18-55-0
0-7-11-53-35-0
0-1-43-41-23-0
0-4-34-46-0
0-19-54-57-45-0
0-52-29-48-30-0
Cost: 488
0-7-11-53-35-0
0-23-41-43-1-0
0-52-29-48-30-0
0-45-57-54-19-0
0-2-28-22-6-0
0-55-18-3-51-0
0-4-34-46-0
0-17-40-12-26-0
Cost: 489
0-46-34-4-0
0-2-22-28-21-0
0-1-43-41-23-0
0-44-55-9-39-0
0-54-19-53-7-0
0-52-29-48-30-0
0-17-3-51-6-0
0-26-58-12-40-0
Cost: 488
0-51-3-18-55-0
0-17-40-12-26-0
0-11-53-35-7-0
0-45-57-54-19-0
0-6-22-28-2-0
0-46-34-4-0
0-30-48-29-52-0
0-1-43-41-23-0
Cost: 488
0-51-3-18-55-0
0-17-40-12-26-0
0-11-53-35-7-0
0-45-57-54-19-0
0-6-22-28-2-0
0-46-34-4-0
0-30-48-29-52-0
0-1-43-41-23-0
Cost: 488
0-6-22-28-2-0
0-46-34-4-0
0-1-43-41-23-0
0-7-11-53-35-0
0-51-3-18-55-0
0-30-48-29-52-0
0-26-12-40-17-0
0-45-57-54-19-0
Cost: 489
0-46-34-4-0
0-2-22-28-21-0
0-1-43-41-23-0
0-44-55-9-39-0
0-54-19-53-7-0
0-52-29-48-30-0
0-17-3-51-6-0
0-26-58-12-40-0
Cost: 488
0-52-29-48-30-0
0-55-18-3-51-0
0-1-43-41-23-0
0-17-40-12-26-0
0-46-34-4-0
0-11-53-35-7-0
0-19-54-57-45-0
0-6-22-28-2-0
Cost: 488
0-11-53-35-7-0
0-52-29-48-30-0
0-2-28-22-6-0
0-45-57-54-19-0
0-23-41-43-1-0
0-46-34-4-0
0-55-18-3-51-0
0-17-40-12-26-0
Cost: 488
0-46-34-4-0
0-1-43-41-23-0
0-2-28-22-6-0
0-26-12-40-17-0
0-51-3-18-55-0
0-7-11-53-35-0
0-19-54-57-45-0
0-30-48-29-52-0
Cost: 489
0-46-34-4-0
0-2-22-28-21-0
0-1-43-41-23-0
0-44-55-9-39-0
0-54-19-53-7-0
0-52-29-48-30-0
0-17-3-51-6-0
0-26-58-12-40-0
Cost: 489
0-17-40-12-26-0
0-46-8-52-34-0
0-6-2-4-0
0-51-55-9-39-0
0-58-53-19-54-0
0-45-29-5-48-0
0-1-43-41-23-0
0-30-21-28-22-0
Cost: 489
0-46-34-4-0
0-2-22-28-21-0
0-1-43-41-23-0
0-44-55-9-39-0
0-54-19-53-7-0
0-52-29-48-30-0
0-17-3-51-6-0
0-26-58-12-40-0
Cost: 489
0-46-34-4-0
0-2-22-28-21-0
0-1-43-41-23-0
0-44-55-9-39-0
0-54-19-53-7-0
0-52-29-48-30-0
0-17-3-51-6-0
0-26-58-12-40-0
Cost: 488
0-55-18-3-51-0
0-45-57-54-19-0
0-11-53-35-7-0
0-2-28-22-6-0
0-46-34-4-0
0-1-43-41-23-0
0-52-29-48-30-0
0-17-40-12-26-0
Cost: 488
0-46-34-4-0
0-35-53-11-7-0
0-55-18-3-51-0
0-6-22-28-2-0
0-45-57-54-19-0
0-1-43-41-23-0
0-17-40-12-26-0
0-52-29-48-30-0
Cost: 492
0-46-34-52-45-0
0-7-35-53-11-0
0-17-40-12-26-0
0-1-43-41-23-0
0-2-28-22-6-0
0-4-48-30-0
0-19-54-57-29-0
0-55-18-3-51-0
Cost: 493
0-1-43-41-23-0
0-4-46-34-0
0-48-5-29-45-0
0-26-7-58-40-0
0-39-55-9-12-0
0-30-21-28-22-0
0-53-19-54-52-0
0-2-6-51-17-0
Cost: 488
0-55-18-3-51-0
0-11-53-35-7-0
0-52-29-48-30-0
0-1-43-41-23-0
0-19-54-57-45-0
0-26-12-40-17-0
0-2-28-22-6-0
0-46-34-4-0
Cost: 488
0-46-34-4-0
0-11-53-35-7-0
0-23-41-43-1-0
0-26-12-40-17-0
0-2-28-22-6-0
0-52-29-48-30-0
0-19-54-57-45-0
0-55-18-3-51-0
